1
1000
60
491 1
487 1
485 1
481 1
472 1
471 1
463 1
454 1
451 1
451 1
448 1
442 1
431 1
426 1
413 1
409 1
392 1
389 1
383 1
360 1
347 1
336 1
329 1
328 1
323 1
312 1
300 1
299 1
299 1
296 1
296 1
292 1
291 1
291 1
288 1
288 1
281 1
279 1
274 1
274 1
273 1
271 1
267 1
266 1
264 1
263 1
262 1
261 1
261 1
258 1
257 1
256 1
255 1
254 1
253 1
252 1
252 1
252 1
251 1
250 1
